\ Generated by MPModelProtoExporter
\   Name             : 
\   Format           : Free
\   Constraints      : 4
\   Variables        : 7
\     Binary         : 0
\     Integer        : 7
\     Continuous     : 0
Minimize
 Obj: +1 V0 +1 V1 +1 V2 +1 V3 +1 V4 +1 V5 +1 V6 
Subject to
 C0: +5 V0 +1 V4 +1 V5 +1 V6  >= 25
 C1: +2 V1 +2 V4 +1 V6  >= 20
 C2: +2 V2 +2 V5  >= 18
 C3: +2 V3 +1 V6  >= 10
Bounds
 0 <= V0 <= 73
 0 <= V1 <= 73
 0 <= V2 <= 73
 0 <= V3 <= 73
 0 <= V4 <= 73
 0 <= V5 <= 73
 0 <= V6 <= 73
Generals
 V0
 V1
 V2
 V3
 V4
 V5
 V6
End
/n